Route #1: 0 67 32 44 63 28 68 0
Route #2: 0 51 10 11 54 27 34 0
Route #3: 0 58 65 14 29 45 4 0
Route #4: 0 40 33 41 43 2 15 0
Route #5: 0 26 46 53 31 39 56 0
Route #6: 0 24 18 50 55 38 7 8 0
Route #7: 0 17 25 1 22 62 21 48 0
Route #8: 0 35 13 57 20 60 69 36 47 5 0
Route #9: 0 52 37 64 42 23 49 16 3 12 0
Route #10: 0 6 61 30 19 59 9 0
Route #11: 0 66 0
Cost 101422:
